NAME: eil30_25
COMMENT: 512.72
VEHICLE: 3
TIME: 2.4946
DIMENSION: 30
CAPACITY: 4500
DELIVERY_SECTION
0 0 0
1 1 225
2 1 45
3 1 30
4 2 1125
5 2 1125
6 2 450
7 2 225
8 2 45
9 2 45
10 2 45
11 2 40
12 3 45
13 3 45
14 3 35
15 4 45
16 4 45
17 4 10
18 5 45
19 5 45
20 5 45
21 5 45
22 5 20
23 6 45
24 6 45
25 6 45
26 6 15
27 7 45
28 7 45
29 7 45
30 7 15
31 8 450
32 9 225
33 9 45
34 9 30
35 10 45
36 10 45
37 10 10
38 11 450
39 11 450
40 11 45
41 11 5
42 12 45
43 12 45
44 12 35
45 13 45
46 13 45
47 13 45
48 13 15
49 14 45
50 14 45
51 14 45
52 14 15
53 15 450
54 15 45
55 15 45
56 15 10
57 16 45
58 16 45
59 16 45
60 16 15
61 17 45
62 17 45
63 17 10
64 18 45
65 18 45
66 18 45
67 18 15
68 19 225
69 19 45
70 19 45
71 19 45
72 19 40
73 20 225
74 20 45
75 20 30
76 21 1125
77 21 225
78 21 45
79 21 45
80 21 45
81 21 15
82 22 45
83 22 45
84 22 10
85 23 225
86 23 45
87 23 30
88 24 450
89 24 45
90 24 5
91 25 450
92 25 225
93 25 45
94 25 45
95 25 35
96 26 225
97 26 45
98 26 30
99 27 45
100 27 45
101 27 10
102 28 45
103 28 45
104 28 45
105 28 15
106 29 450
107 29 450
108 29 45
109 29 45
110 29 10
PICKUP_SECTION
NODE_SECTION
162 354

218 382

218 358

201 370

214 371

224 370

210 382

104 354

126 338

119 340

129 349

126 347

125 346

116 355

126 335

125 355

119 357

115 341

153 351

175 363

180 360

159 331

188 357

152 349

215 389

212 394

188 393

207 406

184 410

207 392
DISTANCE_SECTION
DEPOT_SECTION
0
EOF